52
28 15 201
15 46 539
46 25 186
25 12 254
12 13 206
13 51 319
51 10 399
10 26 417
26 27 110
27 11 182
11 50 188
50 32 475
32 42 365
42 9 308
9 8 83
8 7 183
7 40 64
40 18 92
18 2 207
2 44 220
44 38 244
38 39 43
39 36 41
36 37 43
37 47 49
47 23 16
23 4 32
4 14 25
14 5 40
5 3 70
3 24 109
24 45 173
45 43 131
43 33 80
33 34 21
34 35 15
35 48 81
48 31 50
31 21 97
21 17 116
17 30 80
30 22 152
22 19 94
19 49 35
49 29 215
29 20 242
20 16 253
16 41 408
41 6 76
6 1 45
1 52 150
52 28 645

